SCIP version 5.0.0 [precision: 8 byte] [memory: block] [mode: optimized] [LP solver: NONE] [GitHash: 3bbd232]
Copyright (C) 2002-2017 Konrad-Zuse-Zentrum fuer Informationstechnik Berlin (ZIB)

External codes: 
  Readline EditLine w  GNU library for command line editing (gnu.org/s/readline)
  CppAD 20160000.1     Algorithmic Differentiation of C++ algorithms developed by B. Bell (www.coin-or.org/CppAD)
  ZLIB 1.2.5           General purpose compression library by J. Gailly and M. Adler (zlib.net)
  GMP 6.1.2            GNU Multiple Precision Arithmetic Library developed by T. Granlund (gmplib.org)

user parameter file <scip.set> not found - using default parameters

read problem <../../Split_data/output/biodeg/3/4_sample_biodeg.logreg>
============

File name	:	../../Split_data/output/biodeg/3/4_sample_biodeg.logreg
Problem name 	:	4_sample_biodeg
Number of data	:	844
Number of var	:	41
The given data has linear dependence
1 sets of column vector are linearly dependent:
{ 19}, 

[dim=1] time: 0.029114
[dim=2] time: 0.05936
[dim=3] time: 0.092666
[dim=4] time: 0.131608
[dim=5] time: 0.16429
[dim=6] time: 0.201324
[dim=7] time: 0.241115
[dim=8] time: 0.281049
[dim=9] time: 0.309895
[dim=10] time: 0.337224
[dim=11] time: 0.3667
[dim=12] time: 0.403658
[dim=13] time: 0.428237
[dim=14] time: 0.453568
[dim=15] time: 0.47081
[dim=16] time: 0.498438
[dim=17] time: 0.515123
[dim=18] time: 0.531491
[dim=19] time: 0.548366
[dim=20] time: 0.564573
[dim=21] time: 0.582048
[dim=22] time: 0.598621
[dim=23] time: 0.615022
[dim=24] Time of forward = 0.629724sec.
AIC: 542.035
k: 23

[dim=40] time: 0.14175
[dim=39] time: 0.188924
[dim=38] time: 0.233331
[dim=37] time: 0.273227
[dim=36] time: 0.317145
[dim=35] time: 0.365029
[dim=34] time: 0.41369
[dim=33] time: 0.46333
[dim=32] time: 0.505716
[dim=31] time: 0.544548
[dim=30] time: 0.587831
[dim=29] time: 0.620177
[dim=28] time: 0.650568
[dim=27] time: 0.681796
[dim=26] time: 0.719745
[dim=25] time: 0.746929
[dim=24] time: 0.76989
[dim=23] time: 0.791452
[dim=22] Time of backward = 0.812726sec.
AIC: 542.035
k: 23
